outputs/case_433.model.txt
no_improvement_after_guidance = False
foreign_investment_exclusion_approved_foreign_currency_insurance = True
profit_loss_accelerated_deterioration = False
financial_bonds_investment_amount = 350000000
company_stock_investment_amount_per_company = 50000000
net_worth_ratio = -10
contract_commitment_limit = 100000000
fund_investment_total = 100000000
foreign_investment_exclusion_other_approved = True
net_worth = -1000000
improvement_plan_approved = False
other_major_financial_matters_restricted = True
total_shares_issued_per_company = 10000000
company_stock_investment_shares_per_company = 1500000
risk_to_insured_interest = False
capital_level_severe_insufficient = False
total_funds = 1000000000
unable_to_pay_debt = False
under_supervision = True
fund_investment_units_per_fund = 1500000
company_bonds_investment_amount_per_company = 50000000
total_issued_units_per_fund = 10000000
company_stock_investment_total = 600000000
foreign_investment_exclusion_domestic_foreign_currency_securities = True
supervision_payment_limit = 50000000
unable_to_fulfill_contract = False
capital_adequacy_ratio = 40
securitized_products_investment_total = -600000000
foreign_investment_total = 450000000
foreign_investment_exclusion_approved_foreign_insurance_related = True
company_equity_per_company = 500000000
payment_limit = 100000000
supervision_contract_commitment_limit = 50000000
investment_limit_financial_bonds = 1
financial_or_business_deterioration = False
insurance_or_representative_trust_supervisor = False
investment_limit_company_stock_per_company = 1
insurance_or_representative_manager_appointment = False
accelerated_deterioration_or_no_improvement = False
investment_limit_company_stock_per_company_shares = 1
investment_limit_stock_and_securitized_total = 1
improvement_plan_completed = False
improvement_plan_submitted = False
investment_limit_securitized_products = 1
foreign_investment_exclusions = True
foreign_investment_limit = 1
investment_limit_fund_per_issued_units = 1
investment_limit_company_bonds_per_company = 1
insurance_or_representative_supervisor = False
investment_invalid_roles = False
capital_level = 4
investment_prohibited_roles = True
insurance_or_representative_director = False
investment_limit_fund_total = 1
improvement_plan_overdue = True
insurance_or_representative_management_participation = False
insurance_or_representative_voting_rights = False
supervisory_restrictions = True
penalty = False
supervisory_measures_required = True
investment_limit_company_bonds_per_company_equity = 1
/0 = [(350000000, 1000000000) -> 7/20,
 (50000000, 1000000000) -> 1/20,
 (-600000000, 1000000000) -> -3/5,
 (0, 1000000000) -> 0,
 (450000000, 1000000000) -> 9/20,
 else -> 1/10]
div0 = [else -> 0]
mod0 = [else -> 1500001]